
%FILE DATA:	Soccer Computational Problem for MiniZinc Models	%
%AUTHOR:	Jack Wall	%
%CONTACT:  	116397063@umail.ucc.ie			%
%LAST UPDATE:	01/29/2020, 10:18:06						%
%DESCRIPTION: 	-8 games played with 56 games left				%

n=8; %number of teams

%Games to play
games=[|1,4|2,7|2,4|2,6|7,5|6,3|3,2|5,4|6,8|3,5|5,8|7,3|7,1|4,8|2,5|8,7|3,6|5,6|4,5|2,3|3,8|5,1|6,5|7,8|6,7|1,7|4,3|4,2|6,1|8,5|2,1|8,6|3,1|2,8|6,2|7,2|1,6|6,4|5,7|8,4|8,1|4,7|4,1|8,3|1,5|3,7|5,2|1,3|7,4|5,3|1,8|1,2|8,2|4,6|3,4|7,6|];

%Initial points
iPoints=];

%POSITION CONSTRAINTS
% [|teamID, operator, position|...]
% operators index:
%  1 for =  operator
%  2 for >  operator
%  3 for >= operator
%  4 for <  operator
%  5 for <= operator
positionConstraints=[|6,4,2|];